NAME : n40w60.002.509.tour
COMMENT : Length = 509
COMMENT : Found by LKH [Keld Helsgaun] Tue Nov  7 19:35:16 2017
TYPE : TOUR
DIMENSION : 41
TOUR_SECTION
1
39
35
29
9
7
31
21
15
4
19
25
27
16
28
2
36
11
14
34
10
6
18
3
26
30
13
38
20
22
24
17
12
5
23
33
37
32
41
40
8
-1
EOF
